/* Objective function */
min: 3 y1 + 3 y2 + 3 y3 + 4 y4 + 2 y5 + 12 y6 + 3 y7 + 6 y8 + 2 y9 + 2 y10 + 4 y11 + 3 y12 + 4 y13 + 2 y14 + 5 y15 + 3 y16 + 4 y17 + 2 y18 + 10 y19 + 4 y20 + 4 y21 + 85;

/* Variable bounds */
/*V0*/  y19 - y1  = 0;
/*V1*/  y1 - y2 - y3 - 1 = 0;
/*V2*/  y2 + y11 - y4 + 1 = 0;
/*V3*/  y4 - y5 - y6 - 1  = 0;
/*V4*/  y5 + y15 - y7 + 1 = 0;
/*V5*/  y3 + y9 - y8 + 1 = 0;
/*V6*/  y17 - y9 - y10 - 1 = 0;
/*V7*/  y10 - y11 - y12 - y13 - 2 = 0;
/*V8*/  y7 + y12 - y14 + 1 = 0;
/*V9*/  y14 - y15 - y16 - 1 = 0;
/*V10*/ y8 - y17 - y18 - 1 = 0;
/*V11*/ y18 + y20 - y19 + 1 = 0;
/*V12*/ y13 + y21 - y20 + 1 = 0;
/*V13*/ y6 + y16 - y21 + 1 = 0;

y1  >= 0;
y2  >= 0;
y3  >= 0;
y4  >= 0;
y5  >= 0;
y6  >= 0;
y7  >= 0;
y8  >= 0;
y9  >= 0;
y10 >= 0;
y11 >= 0;
y12 >= 0;
y13 >= 0;
y14 >= 0;
y15 >= 0;
y16 >= 0;
y17 >= 0;
y18 >= 0;
y19 >= 0;
y20 >= 0;
y21 >= 0;

int y1, y2, y3, y4, y5, y6, y7, y8, y9, y10, y11, y12, y13, y14, y15, y16, y17, y18, y19, y20, y21;